5 5
4 40 1 87 0 97 3 29 2 10
4 79 3 10 1 90 2 64 0 29
0 98 4 18 3 2 2 25 1 85
1 51 2 95 4 22 0 9 3 91
3 89 0 89 2 91 4 74 1 94
-1
0 1 2 5
0 1 2 4 5
0 1 2 3 5
0 1 2 3 5
0 3 5
-2
50 202 366
88 110 343 339
142 160 180 330
67 152 197 417
292 626

446 3
10 21 2 18 9
15 1 7 14 24
16 13 22 8 4
20 6 12 3 19
0 5 11 17 23
